final_exercise.param.solution
language ESSENCE' 1.0
letting eta be [true, true]
letting objVar be 5
letting rules be [[false, true, false], 
[false, true, false], 
[false, true, false], 
[false, true, false], 
[false, true, false]]
